# Solution for model Food_Bank
# Objective value = 1.3995831441530874e+06
x_1_172 0
x_1_62 1
x_1_206 1
x_1_210 0
x_1_33 0
x_1_153 1
x_1_102 1
x_1_151 1
x_1_4 0
x_1_162 0
x_1_53 0
x_1_5 0
x_1_6 0
x_1_222 1
x_1_215 0
x_1_165 1
x_1_30 1
x_1_155 1
x_1_207 0
x_1_196 0
x_1_110 1
x_1_140 0
x_1_25 0
y_172_28 0
y_172_19 0
y_172_10 0
y_172_27 0
y_172_11 0
y_172_2 0
y_172_12 0
y_172_25 0
y_172_9 0
y_172_76 0
y_62_28 0
y_62_19 0
y_62_10 0
y_62_27 0
y_62_11 1
y_62_2 0
y_62_12 0
y_62_25 0
y_62_9 0
y_62_76 0
y_206_28 1
y_206_19 0
y_206_10 0
y_206_27 0
y_206_11 0
y_206_2 0
y_206_12 0
y_206_25 0
y_206_9 0
y_206_76 0
y_210_28 0
y_210_19 0
y_210_10 0
y_210_27 0
y_210_11 0
y_210_2 0
y_210_12 0
y_210_25 0
y_210_9 0
y_210_76 0
y_33_28 0
y_33_19 0
y_33_10 0
y_33_27 0
y_33_11 0
y_33_2 0
y_33_12 0
y_33_25 0
y_33_9 0
y_33_76 0
y_153_28 0
y_153_19 0
y_153_10 1
y_153_27 0
y_153_11 0
y_153_2 0
y_153_12 0
y_153_25 0
y_153_9 0
y_153_76 0
y_102_28 0
y_102_19 0
y_102_10 0
y_102_27 1
y_102_11 0
y_102_2 0
y_102_12 0
y_102_25 0
y_102_9 0
y_102_76 0
y_151_28 0
y_151_19 0
y_151_10 0
y_151_27 0
y_151_11 0
y_151_2 0
y_151_12 1
y_151_25 0
y_151_9 0
y_151_76 0
y_4_28 0
y_4_19 0
y_4_10 0
y_4_27 0
y_4_11 0
y_4_2 0
y_4_12 0
y_4_25 0
y_4_9 0
y_4_76 0
y_162_28 0
y_162_19 0
y_162_10 0
y_162_27 0
y_162_11 0
y_162_2 0
y_162_12 0
y_162_25 0
y_162_9 0
y_162_76 0
y_53_28 0
y_53_19 0
y_53_10 0
y_53_27 0
y_53_11 0
y_53_2 0
y_53_12 0
y_53_25 0
y_53_9 0
y_53_76 0
y_5_28 0
y_5_19 0
y_5_10 0
y_5_27 0
y_5_11 0
y_5_2 0
y_5_12 0
y_5_25 0
y_5_9 0
y_5_76 0
y_6_28 0
y_6_19 0
y_6_10 0
y_6_27 0
y_6_11 0
y_6_2 0
y_6_12 0
y_6_25 0
y_6_9 0
y_6_76 0
y_222_28 0
y_222_19 0
y_222_10 0
y_222_27 0
y_222_11 0
y_222_2 0
y_222_12 0
y_222_25 0
y_222_9 0
y_222_76 1
y_215_28 0
y_215_19 0
y_215_10 0
y_215_27 0
y_215_11 0
y_215_2 0
y_215_12 0
y_215_25 0
y_215_9 0
y_215_76 0
y_165_28 0
y_165_19 1
y_165_10 0
y_165_27 0
y_165_11 0
y_165_2 0
y_165_12 0
y_165_25 0
y_165_9 0
y_165_76 0
y_30_28 0
y_30_19 0
y_30_10 0
y_30_27 0
y_30_11 0
y_30_2 1
y_30_12 0
y_30_25 0
y_30_9 0
y_30_76 0
y_155_28 0
y_155_19 0
y_155_10 0
y_155_27 0
y_155_11 0
y_155_2 0
y_155_12 0
y_155_25 0
y_155_9 1
y_155_76 0
y_207_28 0
y_207_19 0
y_207_10 0
y_207_27 0
y_207_11 0
y_207_2 0
y_207_12 0
y_207_25 0
y_207_9 0
y_207_76 0
y_196_28 0
y_196_19 0
y_196_10 0
y_196_27 0
y_196_11 0
y_196_2 0
y_196_12 0
y_196_25 0
y_196_9 0
y_196_76 0
y_110_28 0
y_110_19 0
y_110_10 0
y_110_27 0
y_110_11 0
y_110_2 0
y_110_12 0
y_110_25 1
y_110_9 0
y_110_76 0
y_140_28 0
y_140_19 0
y_140_10 0
y_140_27 0
y_140_11 0
y_140_2 0
y_140_12 0
y_140_25 0
y_140_9 0
y_140_76 0
y_25_28 0
y_25_19 0
y_25_10 0
y_25_27 0
y_25_11 0
y_25_2 0
y_25_12 0
y_25_25 0
y_25_9 0
y_25_76 0
aFP_1_172 0
aFP_1_62 8.5184840893585733e+03
aFP_1_206 7.5078416774559037e+03
aFP_1_210 0
aFP_1_33 0
aFP_1_153 8.0882058472697154e+03
aFP_1_102 6.8794047802423020e+03
aFP_1_151 7.0796260674985779e+03
aFP_1_4 0
aFP_1_162 0
aFP_1_53 0
aFP_1_5 0
aFP_1_6 0
aFP_1_222 6.2624546233531773e+03
aFP_1_215 0
aFP_1_165 9.7805322485130418e+03
aFP_1_30 4.6130993458989415e+03
aFP_1_155 2.4154379003367681e+03
aFP_1_207 0
aFP_1_196 0
aFP_1_110 9327.72668372423
aFP_1_140 0
aFP_1_25 0
aPZ_172_28 0
aPZ_62_28 0
aPZ_206_28 7.5078416774559037e+03
aPZ_210_28 0
aPZ_33_28 0
aPZ_153_28 0
aPZ_102_28 0
aPZ_151_28 0
aPZ_4_28 0
aPZ_162_28 0
aPZ_53_28 0
aPZ_5_28 0
aPZ_6_28 0
aPZ_222_28 0
aPZ_215_28 0
aPZ_165_28 0
aPZ_30_28 0
aPZ_155_28 0
aPZ_207_28 0
aPZ_196_28 0
aPZ_110_28 0
aPZ_140_28 0
aPZ_25_28 0
aPZ_172_19 0
aPZ_62_19 0
aPZ_206_19 0
aPZ_210_19 0
aPZ_33_19 0
aPZ_153_19 0
aPZ_102_19 0
aPZ_151_19 0
aPZ_4_19 0
aPZ_162_19 0
aPZ_53_19 0
aPZ_5_19 0
aPZ_6_19 0
aPZ_222_19 0
aPZ_215_19 0
aPZ_165_19 9.7805322485130418e+03
aPZ_30_19 0
aPZ_155_19 0
aPZ_207_19 0
aPZ_196_19 0
aPZ_110_19 0
aPZ_140_19 0
aPZ_25_19 0
aPZ_172_10 0
aPZ_62_10 0
aPZ_206_10 0
aPZ_210_10 0
aPZ_33_10 0
aPZ_153_10 8.0882058472697227e+03
aPZ_102_10 0
aPZ_151_10 0
aPZ_4_10 0
aPZ_162_10 0
aPZ_53_10 0
aPZ_5_10 0
aPZ_6_10 0
aPZ_222_10 0
aPZ_215_10 0
aPZ_165_10 0
aPZ_30_10 0
aPZ_155_10 0
aPZ_207_10 0
aPZ_196_10 0
aPZ_110_10 0
aPZ_140_10 0
aPZ_25_10 0
aPZ_172_27 0
aPZ_62_27 0
aPZ_206_27 0
aPZ_210_27 0
aPZ_33_27 0
aPZ_153_27 0
aPZ_102_27 6.8794047802423020e+03
aPZ_151_27 0
aPZ_4_27 0
aPZ_162_27 0
aPZ_53_27 0
aPZ_5_27 0
aPZ_6_27 0
aPZ_222_27 0
aPZ_215_27 0
aPZ_165_27 0
aPZ_30_27 0
aPZ_155_27 0
aPZ_207_27 0
aPZ_196_27 0
aPZ_110_27 0
aPZ_140_27 0
aPZ_25_27 0
aPZ_172_11 0
aPZ_62_11 8.5184840893585733e+03
aPZ_206_11 0
aPZ_210_11 0
aPZ_33_11 0
aPZ_153_11 0
aPZ_102_11 0
aPZ_151_11 0
aPZ_4_11 0
aPZ_162_11 0
aPZ_53_11 0
aPZ_5_11 0
aPZ_6_11 0
aPZ_222_11 0
aPZ_215_11 0
aPZ_165_11 0
aPZ_30_11 0
aPZ_155_11 0
aPZ_207_11 0
aPZ_196_11 0
aPZ_110_11 0
aPZ_140_11 0
aPZ_25_11 0
aPZ_172_2 0
aPZ_62_2 0
aPZ_206_2 0
aPZ_210_2 0
aPZ_33_2 0
aPZ_153_2 0
aPZ_102_2 0
aPZ_151_2 0
aPZ_4_2 0
aPZ_162_2 0
aPZ_53_2 0
aPZ_5_2 0
aPZ_6_2 0
aPZ_222_2 0
aPZ_215_2 0
aPZ_165_2 0
aPZ_30_2 4.6130993458989415e+03
aPZ_155_2 0
aPZ_207_2 0
aPZ_196_2 0
aPZ_110_2 0
aPZ_140_2 0
aPZ_25_2 0
aPZ_172_12 0
aPZ_62_12 0
aPZ_206_12 0
aPZ_210_12 0
aPZ_33_12 0
aPZ_153_12 0
aPZ_102_12 0
aPZ_151_12 7.0796260674985779e+03
aPZ_4_12 0
aPZ_162_12 0
aPZ_53_12 0
aPZ_5_12 0
aPZ_6_12 0
aPZ_222_12 0
aPZ_215_12 0
aPZ_165_12 0
aPZ_30_12 0
aPZ_155_12 0
aPZ_207_12 0
aPZ_196_12 0
aPZ_110_12 0
aPZ_140_12 0
aPZ_25_12 0
aPZ_172_25 0
aPZ_62_25 0
aPZ_206_25 0
aPZ_210_25 0
aPZ_33_25 0
aPZ_153_25 0
aPZ_102_25 0
aPZ_151_25 0
aPZ_4_25 0
aPZ_162_25 0
aPZ_53_25 0
aPZ_5_25 0
aPZ_6_25 0
aPZ_222_25 0
aPZ_215_25 0
aPZ_165_25 0
aPZ_30_25 0
aPZ_155_25 0
aPZ_207_25 0
aPZ_196_25 0
aPZ_110_25 9327.72668372423
aPZ_140_25 0
aPZ_25_25 0
aPZ_172_9 0
aPZ_62_9 0
aPZ_206_9 0
aPZ_210_9 0
aPZ_33_9 0
aPZ_153_9 0
aPZ_102_9 0
aPZ_151_9 0
aPZ_4_9 0
aPZ_162_9 0
aPZ_53_9 0
aPZ_5_9 0
aPZ_6_9 0
aPZ_222_9 0
aPZ_215_9 0
aPZ_165_9 0
aPZ_30_9 0
aPZ_155_9 2.4154379003372169e+03
aPZ_207_9 0
aPZ_196_9 0
aPZ_110_9 0
aPZ_140_9 0
aPZ_25_9 0
aPZ_172_76 0
aPZ_62_76 0
aPZ_206_76 0
aPZ_210_76 0
aPZ_33_76 0
aPZ_153_76 0
aPZ_102_76 0
aPZ_151_76 0
aPZ_4_76 0
aPZ_162_76 0
aPZ_53_76 0
aPZ_5_76 0
aPZ_6_76 0
aPZ_222_76 6.2624546233531773e+03
aPZ_215_76 0
aPZ_165_76 0
aPZ_30_76 0
aPZ_155_76 0
aPZ_207_76 0
aPZ_196_76 0
aPZ_110_76 0
aPZ_140_76 0
aPZ_25_76 0
nT_1_172 0
nT_1_62 1
nT_1_206 1
nT_1_210 0
nT_1_33 0
nT_1_153 1
nT_1_102 1
nT_1_151 1
nT_1_4 0
nT_1_162 0
nT_1_53 0
nT_1_5 0
nT_1_6 0
nT_1_222 1
nT_1_215 0
nT_1_165 1
nT_1_30 1
nT_1_155 1
nT_1_207 0
nT_1_196 0
nT_1_110 1
nT_1_140 0
nT_1_25 0
ort_1_172 0
ort_1_62 20
ort_1_206 20
ort_1_210 0
ort_1_33 0
ort_1_153 20
ort_1_102 20
ort_1_151 20
ort_1_4 0
ort_1_162 0
ort_1_53 0
ort_1_5 0
ort_1_6 0
ort_1_222 20
ort_1_215 0
ort_1_165 20
ort_1_30 20
ort_1_155 240
ort_1_207 0
ort_1_196 0
ort_1_110 20
ort_1_140 0
ort_1_25 0
opt_1_172 0
opt_1_62 1.7674075795532072e+01
opt_1_206 1.7704607916127205e+01
opt_1_210 0
opt_1_33 0
opt_1_153 1.7562256374336446e+01
opt_1_102 1.7416029760987882e+01
opt_1_151 1.7406018696625068e+01
opt_1_4 0
opt_1_162 0
opt_1_53 0
opt_1_5 0
opt_1_6 0
opt_1_222 1.7246877268832339e+01
opt_1_215 0
opt_1_165 1.7030973387574349e+01
opt_1_30 1.7256011699371719e+01
opt_1_155 2.3736589477164983e+02
opt_1_207 0
opt_1_196 0
opt_1_110 1.6926946999147123e+01
opt_1_140 0
opt_1_25 0
dt_172_28 0
dt_172_19 0
dt_172_10 0
dt_172_27 0
dt_172_11 0
dt_172_2 0
dt_172_12 0
dt_172_25 0
dt_172_9 0
dt_172_76 0
dt_62_28 0
dt_62_19 0
dt_62_10 0
dt_62_27 0
dt_62_11 5.26146943127549
dt_62_2 0
dt_62_12 0
dt_62_25 0
dt_62_9 0
dt_62_76 0
dt_206_28 4.8917445871095637e+00
dt_206_19 0
dt_206_10 0
dt_206_27 0
dt_206_11 0
dt_206_2 0
dt_206_12 0
dt_206_25 0
dt_206_9 0
dt_206_76 0
dt_210_28 0
dt_210_19 0
dt_210_10 0
dt_210_27 0
dt_210_11 0
dt_210_2 0
dt_210_12 0
dt_210_25 0
dt_210_9 0
dt_210_76 0
dt_33_28 0
dt_33_19 0
dt_33_10 0
dt_33_27 0
dt_33_11 0
dt_33_2 0
dt_33_12 0
dt_33_25 0
dt_33_9 0
dt_33_76 0
dt_153_28 0
dt_153_19 0
dt_153_10 5.1668720465550564e+00
dt_153_27 0
dt_153_11 0
dt_153_2 0
dt_153_12 0
dt_153_25 0
dt_153_9 0
dt_153_76 0
dt_102_28 0
dt_102_19 0
dt_102_10 0
dt_102_27 5.3277916730847856e+00
dt_102_11 0
dt_102_2 0
dt_102_12 0
dt_102_25 0
dt_102_9 0
dt_102_76 0
dt_151_28 0
dt_151_19 0
dt_151_10 0
dt_151_27 0
dt_151_11 0
dt_151_2 0
dt_151_12 5.5818691236244824e+00
dt_151_25 0
dt_151_9 0
dt_151_76 0
dt_4_28 0
dt_4_19 0
dt_4_10 0
dt_4_27 0
dt_4_11 0
dt_4_2 0
dt_4_12 0
dt_4_25 0
dt_4_9 0
dt_4_76 0
dt_162_28 0
dt_162_19 0
dt_162_10 0
dt_162_27 0
dt_162_11 0
dt_162_2 0
dt_162_12 0
dt_162_25 0
dt_162_9 0
dt_162_76 0
dt_53_28 0
dt_53_19 0
dt_53_10 0
dt_53_27 0
dt_53_11 0
dt_53_2 0
dt_53_12 0
dt_53_25 0
dt_53_9 0
dt_53_76 0
dt_5_28 0
dt_5_19 0
dt_5_10 0
dt_5_27 0
dt_5_11 0
dt_5_2 0
dt_5_12 0
dt_5_25 0
dt_5_9 0
dt_5_76 0
dt_6_28 0
dt_6_19 0
dt_6_10 0
dt_6_27 0
dt_6_11 0
dt_6_2 0
dt_6_12 0
dt_6_25 0
dt_6_9 0
dt_6_76 0
dt_222_28 0
dt_222_19 0
dt_222_10 0
dt_222_27 0
dt_222_11 0
dt_222_2 0
dt_222_12 0
dt_222_25 0
dt_222_9 0
dt_222_76 4.8078591181735995e+00
dt_215_28 0
dt_215_19 0
dt_215_10 0
dt_215_27 0
dt_215_11 0
dt_215_2 0
dt_215_12 0
dt_215_25 0
dt_215_9 0
dt_215_76 0
dt_165_28 0
dt_165_19 6.2311862869795078e+00
dt_165_10 0
dt_165_27 0
dt_165_11 0
dt_165_2 0
dt_165_12 0
dt_165_25 0
dt_165_9 0
dt_165_76 0
dt_30_28 0
dt_30_19 0
dt_30_10 0
dt_30_27 0
dt_30_11 0
dt_30_2 4.2625847710646312e+00
dt_30_12 0
dt_30_25 0
dt_30_9 0
dt_30_76 0
dt_155_28 0
dt_155_19 0
dt_155_10 0
dt_155_27 0
dt_155_11 0
dt_155_2 0
dt_155_12 0
dt_155_25 0
dt_155_9 3.4214032651311763e+00
dt_155_76 0
dt_207_28 0
dt_207_19 0
dt_207_10 0
dt_207_27 0
dt_207_11 0
dt_207_2 0
dt_207_12 0
dt_207_25 0
dt_207_9 0
dt_207_76 0
dt_196_28 0
dt_196_19 0
dt_196_10 0
dt_196_27 0
dt_196_11 0
dt_196_2 0
dt_196_12 0
dt_196_25 0
dt_196_9 0
dt_196_76 0
dt_110_28 0
dt_110_19 0
dt_110_10 0
dt_110_27 0
dt_110_11 0
dt_110_2 0
dt_110_12 0
dt_110_25 6.0327043393034829e+00
dt_110_9 0
dt_110_76 0
dt_140_28 0
dt_140_19 0
dt_140_10 0
dt_140_27 0
dt_140_11 0
dt_140_2 0
dt_140_12 0
dt_140_25 0
dt_140_9 0
dt_140_76 0
dt_25_28 0
dt_25_19 0
dt_25_10 0
dt_25_27 0
dt_25_11 0
dt_25_2 0
dt_25_12 0
dt_25_25 0
dt_25_9 0
dt_25_76 0
ut_1_172 0
ut_1_62 2.9814694312755008e+00
ut_1_206 2.6277445871095662e+00
ut_1_210 0
ut_1_33 0
ut_1_153 2.8308720465444
ut_1_102 2.4077916730848057e+00
ut_1_151 2.4778691236245023e+00
ut_1_4 0
ut_1_162 0
ut_1_53 0
ut_1_5 0
ut_1_6 0
ut_1_222 2.1918591181736122e+00
ut_1_215 0
ut_1_165 3.4231862869795644e+00
ut_1_30 1.6145847710646295e+00
ut_1_155 8.4540326511786879e-01
ut_1_207 0
ut_1_196 0
ut_1_110 3.2647043393034805e+00
ut_1_140 0
ut_1_25 0
fFP_1_172 0
fFP_1_62 12
fFP_1_206 12
fFP_1_210 0
fFP_1_33 0
fFP_1_153 12
fFP_1_102 12
fFP_1_151 12
fFP_1_4 0
fFP_1_162 0
fFP_1_53 0
fFP_1_5 0
fFP_1_6 0
fFP_1_222 12
fFP_1_215 0
fFP_1_165 12
fFP_1_30 12
fFP_1_155 1
fFP_1_207 0
fFP_1_196 0
fFP_1_110 12
fFP_1_140 0
fFP_1_25 0
dt_28 4.8917445871095637e+00
dt_19 6.2311862869795078e+00
dt_10 5.16687204655497
dt_27 5.3277916730847856e+00
dt_11 5.26146943127549
dt_2 4.2625847710646312e+00
dt_12 5.5818691236244824e+00
dt_25 6.0327043393034829e+00
dt_9 3.4214032651188973e+00
dt_76 4.8078591181735995e+00
dtt_28 5.8700935045314765e+01
dtt_19 74.7742354437541
dtt_10 6.2002464558659334e+01
dtt_27 6.3933500077017428e+01
dtt_11 6.3137633175305879e+01
dtt_2 5.1151017252775574e+01
dtt_12 6.6982429483493789e+01
dtt_25 72.3924520716418
dtt_9 4.1056839181430405e+01
dtt_76 5.7694309418083193e+01
dep_cost 1.3511557540962484e+06
log_cost 4.8427390056838951e+04
z 1.3995831441530874e+06
